c Standarized MaxSat Instance
c{
c "sha1sum": "e907ad309071225a5b50a65ac8b6b963f7f6b911",
c "nvars": 60,
c "ncls": 840,
c "nhards": 0,
c "nhard_len_stats":
c    { "min": 0, "max": 0, "ave": 0.00,
c      "stddev": 0.00 },
c "nsofts": 840,
c "nsoft_len_stats":
c    { "min": 2, "max": 2, "ave": 2.00,
c      "stddev": 0.00 },
c "nsoft_wts": 10,
c "soft_wt_stats":
c    { "min": 1, "max": 10, "ave": 5.61,
c      "stddev": 2.87 }
c}
c------------------------------------------------------------
c Generated after 1 tries
c Graph with 60 nodes and 420 edges, Max edges:1770
p wcnf 60 840 4713
9 1 6 0
9 -1 -6 0
4 1 7 0
4 -1 -7 0
8 1 8 0
8 -1 -8 0
8 1 9 0
8 -1 -9 0
10 1 30 0
10 -1 -30 0
2 1 36 0
2 -1 -36 0
4 1 57 0
4 -1 -57 0
8 2 6 0
8 -2 -6 0
3 2 10 0
3 -2 -10 0
6 2 12 0
6 -2 -12 0
5 2 14 0
5 -2 -14 0
7 2 17 0
7 -2 -17 0
4 2 27 0
4 -2 -27 0
6 2 29 0
6 -2 -29 0
10 2 30 0
10 -2 -30 0
10 2 38 0
10 -2 -38 0
7 2 47 0
7 -2 -47 0
8 2 51 0
8 -2 -51 0
2 2 53 0
2 -2 -53 0
7 2 56 0
7 -2 -56 0
1 2 59 0
1 -2 -59 0
3 3 7 0
3 -3 -7 0
2 3 8 0
2 -3 -8 0
9 3 13 0
9 -3 -13 0
2 3 16 0
2 -3 -16 0
5 3 18 0
5 -3 -18 0
2 3 20 0
2 -3 -20 0
2 3 24 0
2 -3 -24 0
10 3 27 0
10 -3 -27 0
3 3 34 0
3 -3 -34 0
6 3 38 0
6 -3 -38 0
9 3 41 0
9 -3 -41 0
7 3 44 0
7 -3 -44 0
3 3 46 0
3 -3 -46 0
7 3 50 0
7 -3 -50 0
6 3 53 0
6 -3 -53 0
5 3 57 0
5 -3 -57 0
10 4 5 0
10 -4 -5 0
3 4 6 0
3 -4 -6 0
8 4 10 0
8 -4 -10 0
6 4 12 0
6 -4 -12 0
8 4 20 0
8 -4 -20 0
5 4 21 0
5 -4 -21 0
9 4 30 0
9 -4 -30 0
3 4 32 0
3 -4 -32 0
4 4 33 0
4 -4 -33 0
9 4 36 0
9 -4 -36 0
10 4 38 0
10 -4 -38 0
1 4 47 0
1 -4 -47 0
10 4 49 0
10 -4 -49 0
6 4 53 0
6 -4 -53 0
1 4 57 0
1 -4 -57 0
2 4 60 0
2 -4 -60 0
7 5 7 0
7 -5 -7 0
9 5 14 0
9 -5 -14 0
4 5 15 0
4 -5 -15 0
1 5 22 0
1 -5 -22 0
1 5 24 0
1 -5 -24 0
5 5 25 0
5 -5 -25 0
1 5 29 0
1 -5 -29 0
3 5 32 0
3 -5 -32 0
10 5 34 0
10 -5 -34 0
10 5 36 0
10 -5 -36 0
9 5 38 0
9 -5 -38 0
3 5 43 0
3 -5 -43 0
6 5 49 0
6 -5 -49 0
4 5 54 0
4 -5 -54 0
8 5 55 0
8 -5 -55 0
6 5 56 0
6 -5 -56 0
7 5 58 0
7 -5 -58 0
6 6 8 0
6 -6 -8 0
1 6 9 0
1 -6 -9 0
5 6 14 0
5 -6 -14 0
10 6 15 0
10 -6 -15 0
10 6 21 0
10 -6 -21 0
8 6 27 0
8 -6 -27 0
3 6 32 0
3 -6 -32 0
8 6 38 0
8 -6 -38 0
7 6 43 0
7 -6 -43 0
4 6 49 0
4 -6 -49 0
7 6 52 0
7 -6 -52 0
2 7 12 0
2 -7 -12 0
5 7 15 0
5 -7 -15 0
9 7 17 0
9 -7 -17 0
9 7 25 0
9 -7 -25 0
4 7 27 0
4 -7 -27 0
3 7 28 0
3 -7 -28 0
9 7 29 0
9 -7 -29 0
4 7 39 0
4 -7 -39 0
7 7 43 0
7 -7 -43 0
10 7 45 0
10 -7 -45 0
6 7 48 0
6 -7 -48 0
7 7 49 0
7 -7 -49 0
9 7 54 0
9 -7 -54 0
5 7 55 0
5 -7 -55 0
10 7 56 0
10 -7 -56 0
4 7 59 0
4 -7 -59 0
9 7 60 0
9 -7 -60 0
7 8 17 0
7 -8 -17 0
10 8 24 0
10 -8 -24 0
5 8 26 0
5 -8 -26 0
3 8 27 0
3 -8 -27 0
10 8 32 0
10 -8 -32 0
10 8 33 0
10 -8 -33 0
2 8 41 0
2 -8 -41 0
9 8 47 0
9 -8 -47 0
7 8 48 0
7 -8 -48 0
5 8 49 0
5 -8 -49 0
7 8 54 0
7 -8 -54 0
3 9 20 0
3 -9 -20 0
8 9 23 0
8 -9 -23 0
4 9 24 0
4 -9 -24 0
5 9 31 0
5 -9 -31 0
3 9 32 0
3 -9 -32 0
2 9 34 0
2 -9 -34 0
3 9 37 0
3 -9 -37 0
6 9 39 0
6 -9 -39 0
5 9 46 0
5 -9 -46 0
2 9 47 0
2 -9 -47 0
10 9 48 0
10 -9 -48 0
2 9 55 0
2 -9 -55 0
2 9 57 0
2 -9 -57 0
5 9 58 0
5 -9 -58 0
8 9 60 0
8 -9 -60 0
10 10 12 0
10 -10 -12 0
10 10 22 0
10 -10 -22 0
7 10 26 0
7 -10 -26 0
4 10 30 0
4 -10 -30 0
8 10 33 0
8 -10 -33 0
4 10 34 0
4 -10 -34 0
3 10 36 0
3 -10 -36 0
3 10 42 0
3 -10 -42 0
6 10 44 0
6 -10 -44 0
3 10 45 0
3 -10 -45 0
2 10 58 0
2 -10 -58 0
8 11 21 0
8 -11 -21 0
2 11 23 0
2 -11 -23 0
8 11 32 0
8 -11 -32 0
2 11 34 0
2 -11 -34 0
8 11 37 0
8 -11 -37 0
1 11 41 0
1 -11 -41 0
10 11 56 0
10 -11 -56 0
1 11 58 0
1 -11 -58 0
6 12 17 0
6 -12 -17 0
2 12 19 0
2 -12 -19 0
3 12 23 0
3 -12 -23 0
8 12 25 0
8 -12 -25 0
8 12 26 0
8 -12 -26 0
7 12 42 0
7 -12 -42 0
10 12 47 0
10 -12 -47 0
7 12 48 0
7 -12 -48 0
8 12 49 0
8 -12 -49 0
1 12 58 0
1 -12 -58 0
2 12 60 0
2 -12 -60 0
6 13 20 0
6 -13 -20 0
1 13 21 0
1 -13 -21 0
1 13 28 0
1 -13 -28 0
3 13 38 0
3 -13 -38 0
5 13 39 0
5 -13 -39 0
9 13 48 0
9 -13 -48 0
6 13 60 0
6 -13 -60 0
8 14 16 0
8 -14 -16 0
1 14 17 0
1 -14 -17 0
2 14 19 0
2 -14 -19 0
10 14 23 0
10 -14 -23 0
3 14 25 0
3 -14 -25 0
9 14 38 0
9 -14 -38 0
2 14 40 0
2 -14 -40 0
10 14 44 0
10 -14 -44 0
1 14 45 0
1 -14 -45 0
9 14 46 0
9 -14 -46 0
1 14 49 0
1 -14 -49 0
1 14 50 0
1 -14 -50 0
10 14 53 0
10 -14 -53 0
6 14 56 0
6 -14 -56 0
2 14 57 0
2 -14 -57 0
2 15 17 0
2 -15 -17 0
4 15 19 0
4 -15 -19 0
10 15 22 0
10 -15 -22 0
9 15 23 0
9 -15 -23 0
4 15 24 0
4 -15 -24 0
6 15 59 0
6 -15 -59 0
6 16 20 0
6 -16 -20 0
5 16 23 0
5 -16 -23 0
7 16 27 0
7 -16 -27 0
1 16 28 0
1 -16 -28 0
6 16 38 0
6 -16 -38 0
8 16 42 0
8 -16 -42 0
4 16 43 0
4 -16 -43 0
10 16 44 0
10 -16 -44 0
6 16 46 0
6 -16 -46 0
9 16 49 0
9 -16 -49 0
8 16 53 0
8 -16 -53 0
7 17 22 0
7 -17 -22 0
1 17 23 0
1 -17 -23 0
8 17 34 0
8 -17 -34 0
9 17 37 0
9 -17 -37 0
10 17 38 0
10 -17 -38 0
9 17 42 0
9 -17 -42 0
9 17 49 0
9 -17 -49 0
10 17 57 0
10 -17 -57 0
8 18 23 0
8 -18 -23 0
10 18 24 0
10 -18 -24 0
10 18 27 0
10 -18 -27 0
7 18 29 0
7 -18 -29 0
5 18 36 0
5 -18 -36 0
2 18 40 0
2 -18 -40 0
9 18 44 0
9 -18 -44 0
9 18 47 0
9 -18 -47 0
1 18 48 0
1 -18 -48 0
7 18 54 0
7 -18 -54 0
3 18 55 0
3 -18 -55 0
7 18 56 0
7 -18 -56 0
3 18 58 0
3 -18 -58 0
8 19 20 0
8 -19 -20 0
4 19 22 0
4 -19 -22 0
4 19 24 0
4 -19 -24 0
3 19 28 0
3 -19 -28 0
1 19 31 0
1 -19 -31 0
7 19 34 0
7 -19 -34 0
3 19 45 0
3 -19 -45 0
7 19 55 0
7 -19 -55 0
6 19 58 0
6 -19 -58 0
10 19 60 0
10 -19 -60 0
3 20 21 0
3 -20 -21 0
6 20 28 0
6 -20 -28 0
8 20 39 0
8 -20 -39 0
2 20 46 0
2 -20 -46 0
5 20 51 0
5 -20 -51 0
6 20 52 0
6 -20 -52 0
10 20 55 0
10 -20 -55 0
5 20 59 0
5 -20 -59 0
4 21 23 0
4 -21 -23 0
9 21 27 0
9 -21 -27 0
5 21 29 0
5 -21 -29 0
1 21 34 0
1 -21 -34 0
4 21 40 0
4 -21 -40 0
6 21 45 0
6 -21 -45 0
9 21 46 0
9 -21 -46 0
3 21 56 0
3 -21 -56 0
7 22 23 0
7 -22 -23 0
5 22 24 0
5 -22 -24 0
5 22 27 0
5 -22 -27 0
4 22 29 0
4 -22 -29 0
8 22 38 0
8 -22 -38 0
2 22 43 0
2 -22 -43 0
7 22 51 0
7 -22 -51 0
1 22 52 0
1 -22 -52 0
5 22 56 0
5 -22 -56 0
7 22 58 0
7 -22 -58 0
7 22 60 0
7 -22 -60 0
7 23 29 0
7 -23 -29 0
4 23 36 0
4 -23 -36 0
2 23 37 0
2 -23 -37 0
7 23 39 0
7 -23 -39 0
7 23 43 0
7 -23 -43 0
8 23 47 0
8 -23 -47 0
4 23 50 0
4 -23 -50 0
8 23 59 0
8 -23 -59 0
3 24 27 0
3 -24 -27 0
10 24 31 0
10 -24 -31 0
7 24 35 0
7 -24 -35 0
7 24 36 0
7 -24 -36 0
3 24 40 0
3 -24 -40 0
6 24 45 0
6 -24 -45 0
1 24 46 0
1 -24 -46 0
3 24 54 0
3 -24 -54 0
9 24 56 0
9 -24 -56 0
7 24 59 0
7 -24 -59 0
1 25 29 0
1 -25 -29 0
2 25 30 0
2 -25 -30 0
4 25 40 0
4 -25 -40 0
6 25 44 0
6 -25 -44 0
6 25 48 0
6 -25 -48 0
7 25 53 0
7 -25 -53 0
3 25 54 0
3 -25 -54 0
8 26 27 0
8 -26 -27 0
3 26 29 0
3 -26 -29 0
4 26 32 0
4 -26 -32 0
2 26 41 0
2 -26 -41 0
10 26 49 0
10 -26 -49 0
1 26 50 0
1 -26 -50 0
9 26 55 0
9 -26 -55 0
4 26 56 0
4 -26 -56 0
2 27 30 0
2 -27 -30 0
5 27 34 0
5 -27 -34 0
10 27 41 0
10 -27 -41 0
10 27 49 0
10 -27 -49 0
8 27 50 0
8 -27 -50 0
7 27 57 0
7 -27 -57 0
2 28 35 0
2 -28 -35 0
7 28 37 0
7 -28 -37 0
4 28 39 0
4 -28 -39 0
8 28 43 0
8 -28 -43 0
10 28 44 0
10 -28 -44 0
10 28 51 0
10 -28 -51 0
9 28 57 0
9 -28 -57 0
3 29 32 0
3 -29 -32 0
8 29 38 0
8 -29 -38 0
6 29 50 0
6 -29 -50 0
3 29 51 0
3 -29 -51 0
10 29 53 0
10 -29 -53 0
10 29 58 0
10 -29 -58 0
9 29 60 0
9 -29 -60 0
5 30 31 0
5 -30 -31 0
6 30 34 0
6 -30 -34 0
2 30 37 0
2 -30 -37 0
3 30 44 0
3 -30 -44 0
9 30 46 0
9 -30 -46 0
5 30 53 0
5 -30 -53 0
5 30 55 0
5 -30 -55 0
9 30 57 0
9 -30 -57 0
5 31 32 0
5 -31 -32 0
3 31 39 0
3 -31 -39 0
2 31 48 0
2 -31 -48 0
7 31 51 0
7 -31 -51 0
8 31 59 0
8 -31 -59 0
2 31 60 0
2 -31 -60 0
7 32 38 0
7 -32 -38 0
5 32 41 0
5 -32 -41 0
9 32 49 0
9 -32 -49 0
8 32 53 0
8 -32 -53 0
2 32 54 0
2 -32 -54 0
3 32 57 0
3 -32 -57 0
5 32 59 0
5 -32 -59 0
2 32 60 0
2 -32 -60 0
2 33 34 0
2 -33 -34 0
4 33 40 0
4 -33 -40 0
4 33 46 0
4 -33 -46 0
10 33 52 0
10 -33 -52 0
10 33 55 0
10 -33 -55 0
7 33 58 0
7 -33 -58 0
9 34 38 0
9 -34 -38 0
9 34 43 0
9 -34 -43 0
5 34 56 0
5 -34 -56 0
4 35 41 0
4 -35 -41 0
4 35 43 0
4 -35 -43 0
7 35 44 0
7 -35 -44 0
7 35 45 0
7 -35 -45 0
3 35 46 0
3 -35 -46 0
2 35 50 0
2 -35 -50 0
1 35 57 0
1 -35 -57 0
2 36 38 0
2 -36 -38 0
7 36 41 0
7 -36 -41 0
4 36 50 0
4 -36 -50 0
3 36 51 0
3 -36 -51 0
4 36 54 0
4 -36 -54 0
1 37 41 0
1 -37 -41 0
5 37 46 0
5 -37 -46 0
10 37 47 0
10 -37 -47 0
6 37 59 0
6 -37 -59 0
3 38 41 0
3 -38 -41 0
7 38 44 0
7 -38 -44 0
8 38 49 0
8 -38 -49 0
5 38 51 0
5 -38 -51 0
2 38 55 0
2 -38 -55 0
9 38 59 0
9 -38 -59 0
7 38 60 0
7 -38 -60 0
6 39 40 0
6 -39 -40 0
3 39 41 0
3 -39 -41 0
6 39 42 0
6 -39 -42 0
5 39 48 0
5 -39 -48 0
9 39 51 0
9 -39 -51 0
4 39 55 0
4 -39 -55 0
3 40 49 0
3 -40 -49 0
4 40 59 0
4 -40 -59 0
8 41 43 0
8 -41 -43 0
7 41 45 0
7 -41 -45 0
10 41 47 0
10 -41 -47 0
4 41 54 0
4 -41 -54 0
9 41 57 0
9 -41 -57 0
2 41 60 0
2 -41 -60 0
5 42 45 0
5 -42 -45 0
1 42 49 0
1 -42 -49 0
8 42 50 0
8 -42 -50 0
8 42 51 0
8 -42 -51 0
3 42 52 0
3 -42 -52 0
2 42 53 0
2 -42 -53 0
9 42 59 0
9 -42 -59 0
8 43 46 0
8 -43 -46 0
1 43 47 0
1 -43 -47 0
5 43 57 0
5 -43 -57 0
10 43 59 0
10 -43 -59 0
8 43 60 0
8 -43 -60 0
3 44 45 0
3 -44 -45 0
5 44 47 0
5 -44 -47 0
9 44 52 0
9 -44 -52 0
1 44 56 0
1 -44 -56 0
1 45 47 0
1 -45 -47 0
4 45 49 0
4 -45 -49 0
4 45 54 0
4 -45 -54 0
7 45 55 0
7 -45 -55 0
9 45 58 0
9 -45 -58 0
2 45 60 0
2 -45 -60 0
1 46 49 0
1 -46 -49 0
1 46 54 0
1 -46 -54 0
5 46 56 0
5 -46 -56 0
8 46 57 0
8 -46 -57 0
7 47 54 0
7 -47 -54 0
5 47 57 0
5 -47 -57 0
2 48 50 0
2 -48 -50 0
6 48 54 0
6 -48 -54 0
6 49 50 0
6 -49 -50 0
6 49 54 0
6 -49 -54 0
6 49 60 0
6 -49 -60 0
4 50 53 0
4 -50 -53 0
4 50 57 0
4 -50 -57 0
9 50 58 0
9 -50 -58 0
5 50 59 0
5 -50 -59 0
2 50 60 0
2 -50 -60 0
7 51 56 0
7 -51 -56 0
6 51 57 0
6 -51 -57 0
7 52 54 0
7 -52 -54 0
6 52 56 0
6 -52 -56 0
3 52 59 0
3 -52 -59 0
9 53 60 0
9 -53 -60 0
1 55 59 0
1 -55 -59 0
1 55 60 0
1 -55 -60 0
10 56 58 0
10 -56 -58 0
2 57 59 0
2 -57 -59 0
